p cnf 12 50 
3 -4 8 0
-1 12 2 0
-5 4 -3 0
5 -1 -12 0
3 10 -6 0
-5 -10 2 0
-10 5 -2 0
8 -1 -7 0
-5 10 -2 0
-1 2 -12 0
-6 -4 -11 0
4 7 -1 0
8 -10 -2 0
10 -3 -12 0
-7 5 -1 0
12 3 -10 0
-9 -8 4 0
-10 -8 1 0
2 5 8 0
3 10 5 0
9 -3 12 0
-8 -10 -6 0
-8 -2 -7 0
5 -8 -10 0
7 5 9 0
-10 -11 -1 0
3 -4 -2 0
11 1 4 0
11 4 -9 0
10 -6 -2 0
-7 -5 12 0
2 -3 12 0
7 -10 8 0
-4 10 7 0
-7 -12 -2 0
-6 10 -5 0
-8 9 -10 0
-8 -5 -1 0
3 9 5 0
1 -6 2 0
-5 10 -2 0
10 3 12 0
9 -3 -6 0
2 11 7 0
9 1 8 0
10 1 -6 0
-9 -5 10 0
-4 8 3 0
11 8 1 0
-12 -6 4 0
